12 66
1 2 4
1 3 4
1 4 3
1 5 5
1 6 3
1 7 1
1 8 1
1 9 1
1 10 4
1 11 2
1 12 2
2 3 5
2 4 4
2 5 3
2 6 5
2 7 5
2 8 1
2 9 3
2 10 5
2 11 1
2 12 1
3 4 2
3 5 1
3 6 1
3 7 3
3 8 1
3 9 2
3 10 2
3 11 4
3 12 1
4 5 3
4 6 2
4 7 2
4 8 3
4 9 4
4 10 3
4 11 3
4 12 3
5 6 4
5 7 5
5 8 1
5 9 5
5 10 1
5 11 3
5 12 4
6 7 4
6 8 2
6 9 4
6 10 5
6 11 1
6 12 4
7 8 2
7 9 4
7 10 5
7 11 1
7 12 3
8 9 5
8 10 5
8 11 1
8 12 4
9 10 2
9 11 3
9 12 3
10 11 5
10 12 4
11 12 5
